HUN,8,6,884
0,30,5,22,1,23,2,28,4,27,3,28
5,22,3,30,4,29,2,22,1,30,0,23
1,25,2,29,3,30,5,23,4,24,0,28
0,25,5,21,3,23,4,26,2,24,1,24
3,25,2,30,5,21,1,24,0,22,4,27
4,21,0,25,3,21,1,22,5,23,2,26
3,22,2,23,0,25,1,23,5,25,4,26
0,29,5,29,1,26,3,26,2,23,4,30
